\ Model prob_44
\ LP format - for model browsing. Use MPS format to capture full model detail.
Minimize
  37 x_1_2 + 72 x_1_3 + 66 x_1_4 + 33 x_1_5 + 37 x_2_1 + 26 x_2_3 + 56 x_2_4
   + 100 x_2_5 + 72 x_3_1 + 26 x_3_2 + 49 x_3_4 + 32 x_3_5 + 66 x_4_1
   + 56 x_4_2 + 49 x_4_3 + 13 x_4_5 + 33 x_5_1 + 100 x_5_2 + 32 x_5_3
   + 13 x_5_4 + 0 u_1
Subject To
 R0: x_1_2 + x_1_3 + x_1_4 + x_1_5 = 1
 R1: x_2_1 + x_3_1 + x_4_1 + x_5_1 = 1
 R2: x_2_1 + x_2_3 + x_2_4 + x_2_5 = 1
 R3: x_1_2 + x_3_2 + x_4_2 + x_5_2 = 1
 R4: x_3_1 + x_3_2 + x_3_4 + x_3_5 = 1
 R5: x_1_3 + x_2_3 + x_4_3 + x_5_3 = 1
 R6: x_4_1 + x_4_2 + x_4_3 + x_4_5 = 1
 R7: x_1_4 + x_2_4 + x_3_4 + x_5_4 = 1
 R8: x_5_1 + x_5_2 + x_5_3 + x_5_4 = 1
 R9: x_1_5 + x_2_5 + x_3_5 + x_4_5 = 1
 R10: 5 x_2_3 + u_2 - u_3 <= 4
 R11: 5 x_2_4 + u_2 - u_4 <= 4
 R12: 5 x_2_5 + u_2 - u_5 <= 4
 R13: 5 x_3_2 - u_2 + u_3 <= 4
 R14: 5 x_3_4 + u_3 - u_4 <= 4
 R15: 5 x_3_5 + u_3 - u_5 <= 4
 R16: 5 x_4_2 - u_2 + u_4 <= 4
 R17: 5 x_4_3 - u_3 + u_4 <= 4
 R18: 5 x_4_5 + u_4 - u_5 <= 4
 R19: 5 x_5_2 - u_2 + u_5 <= 4
 R20: 5 x_5_3 - u_3 + u_5 <= 4
 R21: 5 x_5_4 - u_4 + u_5 <= 4
Bounds
 u_1 <= 4
 u_2 <= 4
 u_3 <= 4
 u_4 <= 4
 u_5 <= 4
Binaries
 x_1_2 x_1_3 x_1_4 x_1_5 x_2_1 x_2_3 x_2_4 x_2_5 x_3_1 x_3_2 x_3_4 x_3_5
 x_4_1 x_4_2 x_4_3 x_4_5 x_5_1 x_5_2 x_5_3 x_5_4
End
